solution status: optimal solution found
objective value:                                    0
$_4_y                                              -3 	(obj:0)
$_4_z                                              15 	(obj:0)
$_7_y                                              -2 	(obj:0)
$_7_z                                              15 	(obj:0)
$_2_y                                               2 	(obj:0)
$_2_z                                              17 	(obj:0)
$_9_y                                              -3 	(obj:0)
$_9_z                                              14 	(obj:0)
